5
134
422
40	24
1	1	5	4	
2	1	15	3	
3	5	9	5	7	4	8	3	4	3	19	2	
4	4	11	6	6	6	13	3	4	2	
5	2	4	10	6	8	
6	5	5	10	6	6	8	4	5	4	5	4	
7	4	5	10	5	8	5	3	16	2	
8	4	8	12	7	9	12	3	8	3	
9	1	7	11	
10	5	7	11	7	8	8	4	10	3	7	3	
11	2	7	4	22	3	
12	5	5	11	5	8	6	5	10	4	10	2	
13	4	11	6	19	3	19	3	12	2	
14	3	5	7	5	7	6	3	
15	3	5	6	11	5	23	3	
16	2	16	4	5	3	
17	2	5	7	16	4	
18	2	8	11	23	2	
19	2	18	4	6	4	
20	3	8	10	6	3	17	2	
21	5	7	11	5	6	24	3	6	2	5	2	
22	5	7	12	6	10	7	6	10	5	9	3	
23	3	5	7	10	4	9	2	
24	1	11	3	
25	5	5	6	6	5	4	5	19	4	9	2	
26	2	7	5	8	2	
27	4	7	10	5	8	18	3	6	2	
28	1	4	9	
29	4	8	12	7	5	16	4	21	3	
30	5	10	5	17	3	7	3	6	3	8	2	
31	5	13	3	11	3	7	3	10	2	7	2	
32	5	7	5	6	4	7	3	5	3	24	2	
33	3	5	7	10	5	23	3	
34	1	8	8	
35	5	5	11	11	4	11	3	10	3	11	2	
36	5	7	7	5	5	21	3	19	3	9	3	
37	1	6	3	
38	5	7	7	8	5	10	4	7	4	5	3	
39	3	7	6	8	5	8	3	
40	4	5	12	4	8	10	6	18	2	
41	1	8	5	
42	5	6	9	8	4	23	3	21	3	19	3	
43	3	6	9	6	7	8	2	
44	3	5	9	4	5	7	2	
45	2	6	4	7	3	
46	1	20	2	
47	4	6	11	6	5	8	3	15	2	
48	1	9	3	
49	5	6	9	10	5	8	5	9	4	9	3	
50	4	4	12	5	7	18	3	6	3	
51	3	10	5	8	4	14	3	
52	2	24	4	7	4	
53	2	6	5	7	3	
54	5	6	11	4	9	7	8	5	8	23	2	
55	3	5	6	4	6	17	2	
56	1	11	5	
57	4	7	11	5	7	9	2	7	2	
58	4	7	11	5	7	5	3	5	2	
59	4	5	11	19	3	5	3	8	2	
60	2	5	11	10	4	
61	4	8	11	10	3	7	3	4	2	
62	4	8	9	16	4	9	3	6	3	
63	1	7	6	
64	2	8	5	5	3	
65	4	7	12	12	5	11	3	8	2	
66	2	8	9	8	3	
67	2	5	4	6	2	
68	2	4	12	7	3	
69	1	8	4	
70	2	19	4	7	4	
71	4	8	6	7	5	11	3	8	2	
72	1	7	4	
73	3	12	6	20	4	12	3	
74	4	5	10	4	5	23	3	10	3	
75	1	4	6	
76	4	6	5	6	5	10	4	8	3	
77	3	7	5	22	3	8	3	
78	3	7	7	10	3	7	3	
79	4	6	12	22	4	7	4	5	4	
80	4	8	10	5	7	9	4	9	2	
81	4	5	12	8	5	5	5	9	3	
82	5	11	5	14	3	9	3	12	2	10	2	
83	2	5	8	19	3	
84	2	15	3	17	2	
85	2	7	6	16	2	
86	1	8	3	
87	4	11	6	8	5	5	5	8	2	
88	1	9	3	
89	2	5	7	10	2	
90	4	7	8	7	7	9	6	10	3	
91	3	10	5	5	5	19	3	
92	5	7	5	5	4	5	3	17	2	7	2	
93	5	7	10	4	7	5	5	12	4	7	3	
94	1	6	7	
95	5	11	6	7	6	10	5	7	5	5	2	
96	1	6	5	
97	3	8	5	10	3	8	2	
98	5	8	10	6	10	8	3	8	2	5	2	
99	2	18	3	9	3	
100	4	12	5	20	4	12	4	10	4	
101	4	6	6	10	4	20	3	6	2	
102	1	5	4	
103	2	6	9	6	5	
104	1	6	3	
105	1	9	4	
106	3	6	4	4	4	19	3	
107	5	6	5	21	4	6	4	21	3	7	3	
108	5	5	6	11	5	12	4	4	4	19	2	
109	4	7	10	7	7	6	5	15	2	
110	2	5	6	16	3	
111	3	14	4	17	3	4	3	
112	3	11	6	8	5	7	3	
113	3	7	9	16	4	11	4	
114	1	24	3	
115	5	4	6	10	5	11	3	10	3	10	3	
116	5	7	11	6	6	6	5	13	4	10	3	
117	5	5	8	17	4	14	4	9	3	11	2	
118	5	6	11	5	5	20	3	16	3	13	3	
119	3	4	4	13	3	7	3	
120	4	6	5	16	3	6	3	22	2	
121	4	8	4	7	4	18	3	5	3	
122	3	5	8	8	6	11	3	
123	5	5	10	6	8	11	4	8	4	7	3	
124	3	6	10	9	4	4	3	
125	4	6	7	10	5	6	3	6	3	
126	3	7	7	11	4	7	3	
127	5	12	5	4	4	4	4	6	3	6	3	
128	2	5	12	8	5	
129	3	7	12	6	5	7	2	
130	4	9	5	7	4	7	3	5	3	
131	4	11	5	16	3	12	3	11	3	
132	3	9	6	5	5	11	2	
133	5	7	11	8	7	5	5	5	3	18	2	
134	2	7	11	5	8	
